proyfinal/src/viki/013/andrea/andrea-localstore/experimentInOfficeAgust.take6/worker_6/cf5a8e3c-45a0-4021-b602-535186045169.als.cnf.out
Reading from standard input... Use '--help' for help.
============================[ Problem Statistics ]=============================
|                                                                             |
|  Number of variables:         87638                                         |
|  Number of clauses:          161767                                         |
|  Parse time:                   0.04 s                                       |
|                                                                             |
============================[ Search Statistics ]==============================
| Conflicts |          ORIGINAL         |          LEARNT          | Progress |
|           |    Vars  Clauses Literals |    Limit  Clauses Lit/Cl |          |
===============================================================================
|       100 |   63975   110867   276969 |    40651      100     34 | 27.001 % |
|       250 |   63975   110867   276969 |    44716      250     35 | 27.001 % |
|       475 |   63975   110867   276969 |    49187      475     42 | 27.001 % |
|       812 |   63975   110867   276969 |    54106      812     50 | 27.001 % |
|      1318 |   63974   110864   276963 |    59517     1317     68 | 27.002 % |
|      2077 |   63959   110748   276705 |    65469     2071     79 | 27.019 % |
|      3216 |   63959   110748   276705 |    72016     3210     72 | 27.019 % |
|      4924 |   63935   110648   276476 |    79217     4917     76 | 27.046 % |
|      7486 |   63769   109974   274904 |    87139     7471     74 | 27.236 % |
|     11330 |   63750   109898   274728 |    95853    11314     78 | 27.258 % |
|     17096 |   63429   108642   271729 |   105438    17046     76 | 27.624 % |
===============================================================================
restarts              : 81
conflicts             : 22810          (6679 /sec)
decisions             : 75268          (0.00 % random) (22038 /sec)
propagations          : 32531202       (9525110 /sec)
conflict literals     : 1719778        (52.55 % deleted)
Memory used           : 47.78 MB
CPU time              : 3.41531 s

INDETERMINATE
